c This is QMaxSAT 2017 based on 14.07
c This is Glucose 3.0
c This is MiniSat 2.2.0
c WARNING: for repeatability, setting FPU to use double precision
c card = mrwto, comp = 0, pmodel = 0, narr = 4, mct = 29, verb = 0
cr firstCPXsol 0 0 0
c top = 167313
c |  Number of variables:    2048                                             |
c |  Number of clauses:      56974                                            |
c |  Weight of hard clauses: 167313                                           |
c |  Number of soft clauses: 3920                                             |
c |  Number of unit soft clauses: 0                                           |
c |  Maximum Cardinality (by unit): 788168       (0           )               |
c last restart ## conflicts  :  0 106 
o 1649 | cpuTime 0.011673 s
c Sum of weights = 197042
c A number of soft clauses remained = 980
c MRWTO encoding for Pseudo-Boolean Constraints
c sizeMax=1649
c No.0 Divisor=12	generated by pow1
c No.1 Divisor=12	generated by pow1
c No.2 Divisor=12	generated by pow1
c p0= 12	p1= 12	p2= 12	
c number of digits = 4
c linkingVar[0].size = 12, linkingVar[1].size = 12, linkingVar[2].size = 12, linkingVar[3].size = 1, 
c Pseudo-Boolean Constraints: 22194 variables and 221729 clauses
c Sum of weights = 197042
c A number of soft clauses remained = 980
c MRWTO encoding for Pseudo-Boolean Constraints
c sizeMax=1649
c No.0 Divisor=12	generated by pow1
c No.1 Divisor=12	generated by pow1
c No.2 Divisor=12	generated by pow1
c p0= 12	p1= 12	p2= 12	
c number of digits = 4
c linkingVar[0].size = 12, linkingVar[1].size = 12, linkingVar[2].size = 12, linkingVar[3].size = 1, 
c Pseudo-Boolean Constraints: 22194 variables and 221729 clauses
c Sum of weights = 197042
c A number of soft clauses remained = 980
c MRWTO encoding for Pseudo-Boolean Constraints
c sizeMax=1649
c No.0 Divisor=12	generated by pow1
c No.1 Divisor=12	generated by pow1
c No.2 Divisor=12	generated by pow1
c p0= 12	p1= 12	p2= 12	
c number of digits = 4
c linkingVar[0].size = 12, linkingVar[1].size = 12, linkingVar[2].size = 12, linkingVar[3].size = 1, 
c Pseudo-Boolean Constraints: 22194 variables and 221729 clauses
c Sum of weights = 197042
c A number of soft clauses remained = 980
c MRWTO encoding for Pseudo-Boolean Constraints
c sizeMax=1649
c No.0 Divisor=12	generated by pow1
c No.1 Divisor=12	generated by pow1
c No.2 Divisor=12	generated by pow1
c p0= 12	p1= 12	p2= 12	
c number of digits = 4
c linkingVar[0].size = 12, linkingVar[1].size = 12, linkingVar[2].size = 12, linkingVar[3].size = 1, 
c Pseudo-Boolean Constraints: 22194 variables and 221729 clauses
c last restart ## conflicts  :  240 2465 
o 1461 | cpuTime 4.68803 s
c last restart ## conflicts  :  281 1678 
o 1388 | cpuTime 7.61547 s
c last restart ## conflicts  :  338 1864 
o 1336 | cpuTime 17.305 s
c last restart ## conflicts  :  208 1295 
o 1287 | cpuTime 18.0549 s
c last restart ## conflicts  :  357 1561 
o 1275 | cpuTime 221.152 s
c last restart ## conflicts  :  827 1208 
o 1273 | cpuTime 234.484 s
c last restart ## conflicts  :  1749 2481 
o 1174 | cpuTime 284.54 s
s UNKNOWN
c Search is stopped by a limit (maybe time-limit)
cr positiVarArr: [ | 26(1->23) | 42(1->7) | 76(1->9) | 127(1->28) | 136(2->5) | 192(3->29) | 205(4->10) | 248(5->21) | 271(6->12) | 316(7->25) | 321(8->1) | 358(9->3) | 389(10->2) | 438(11->19) | 466(12->15) | 487(13->4) | 532(14->17) | 558(15->11) | 603(16->24) | 631(17->20) | 665(18->22) | 688(19->13) | 734(20->27) | 740(21->1) | 787(22->16) | 829(23->26) | 835(24->1) | 881(25->14) | 907(26->8) | 930(27->1) | 969(28->6) | 1013(29->18) | ]
cr the 1-th chain: [ 1->23->26->8->1 ] (#non-depot=3) {#cumul.=4}
cr the 2-th chain: [ 1->7->25->14->17->20->27->1 ] (#non-depot=6) {#cumul.=10}
cr the 3-th chain: [ 1->9->3->29->18->22->16->24->1 ] (#non-depot=7) {#cumul.=17}
cr the 4-th chain: [ 1->28->6->12->15->11->19->13->4->10->2->5->21->1 ] (#non-depot=12) {#cumul.=29}
c Latest Answer = 0 by 8 loops
c restarts              : 83765
c conflicts             : 20600357       (5730 /sec)
c decisions             : 69786091       (0.00 % random) (19412 /sec)
c propagations          : 21592747224    (6006417 /sec)
c conflict literals     : 1829166538     (27.90 % deleted)
c Memory used           : 437.00 MB
c CPU time              : 3594.95 s
